1,3,8,3,6,2,10,3,9,2,2,3,3,4,7,3;1,1,8,2,10,2,4,4,2,2,6,3,5,3,3,5,7,5;2,1,1,2,3,1,4,3,8,4,7,2,5,2,10,4,9,4,6,4,5,5;4,2,3,2,7,1,8,5,4,5,9,3,2,5,10,5,5,4,1,5,6,5;8,1,4,1,10,1,6,1,5,1,9,1,3,3,2,4,1,4,7,4,9,5;
